0 16 57
1 17 63
2 5 64
3 8 52
4 12 42
5 7 38
6 5 25
7 10 17
8 13 13
9 5 6
10 21 10
11 27 23
12 32 22
13 30 15
14 36 16
15 39 10
16 46 10
17 51 21
18 59 15
19 58 27
20 52 33
21 48 28
22 40 30
23 45 35
24 42 41
25 38 46
26 37 52
27 42 57
28 49 49
29 52 41
30 56 37
31 61 33
32 62 42
33 58 48
34 57 58
35 62 63
36 63 69
37 52 64
38 43 67
39 37 69
40 27 68
41 31 62
42 25 55
43 30 48
44 30 40
45 32 39
46 31 32
47 25 32
48 20 26
49 17 33
50 21 47
51 16 57
